p cnf 209 752
c t mc
3 -2 0
3 1 0
2 -1 -3 0
5 3 0
5 4 0
-3 -4 -5 0
6 -1 0
6 -5 0
1 5 -6 0
10 -8 0
10 9 0
8 -9 -10 0
7 -10 -11 0
-7 10 -11 0
7 10 11 0
-7 -10 11 0
12 -6 0
12 11 0
6 -11 -12 0
16 -14 0
16 15 0
14 -15 -16 0
17 16 0
17 13 0
-16 -13 -17 0
13 -17 -18 0
-13 17 -18 0
13 17 18 0
-13 -17 18 0
-19 2 0
-19 16 0
-2 -16 19 0
-1 19 -20 0
1 -19 -20 0
-1 -19 20 0
1 19 20 0
-18 20 -21 0
18 -20 -21 0
-18 -20 21 0
18 20 21 0
22 1 -23 0
-22 -1 -23 0
22 -1 23 0
-22 1 23 0
-25 -23 0
-25 24 0
23 -24 25 0
-26 -21 0
-26 25 0
21 -25 26 0
27 22 0
27 17 0
-22 -17 -27 0
26 -27 -28 0
-26 27 -28 0
26 27 28 0
-26 -27 28 0
29 12 0
29 28 0
-12 -28 -29 0
32 15 0
32 31 0
-15 -31 -32 0
-33 30 0
-33 32 0
-30 -32 33 0
35 4 0
35 -34 0
-4 34 -35 0
19 -35 -36 0
-19 35 -36 0
19 35 36 0
-19 -35 36 0
-38 -37 0
-38 -7 0
37 7 38 0
36 38 -39 0
-36 -38 -39 0
36 -38 39 0
-36 38 39 0
40 33 0
40 -39 0
-33 39 -40 0
-41 -17 0
-41 40 0
17 -40 41 0
-42 1 0
-42 41 0
-1 -41 42 0
43 -29 0
43 -42 0
29 42 -43 0
44 8 0
44 20 0
-8 -20 -44 0
46 -44 0
46 45 0
44 -45 -46 0
47 38 0
47 -17 0
-38 17 -47 0
-48 -22 0
-48 -32 0
22 32 48 0
49 47 0
49 -48 0
-47 48 -49 0
-20 -31 -51 0
20 31 -51 0
-20 31 51 0
20 -31 51 0
-50 -51 -52 0
50 51 -52 0
-50 51 52 0
50 -51 52 0
-49 -52 -53 0
49 52 -53 0
-49 52 53 0
49 -52 53 0
39 49 -54 0
-39 -49 -54 0
39 -49 54 0
-39 49 54 0
-55 54 0
-55 -24 0
-54 24 55 0
-53 -55 -56 0
53 55 -56 0
-53 55 56 0
53 -55 56 0
57 46 0
57 56 0
-46 -56 -57 0
-58 32 0
-58 -15 0
-32 15 58 0
-59 57 0
-59 -58 0
-57 58 59 0
43 59 -60 0
-43 -59 -60 0
43 -59 60 0
-43 59 60 0
-61 -22 0
-61 34 0
22 -34 61 0
61 62 -63 0
-61 -62 -63 0
61 -62 63 0
-61 62 63 0
-63 34 -64 0
63 -34 -64 0
-63 -34 64 0
63 34 64 0
-65 34 0
-65 -7 0
-34 7 65 0
-66 -64 0
-66 -65 0
64 65 66 0
-67 -66 0
-67 38 0
66 -38 67 0
-68 51 0
-68 19 0
-51 -19 68 0
-69 67 0
-69 68 0
-67 -68 69 0
-15 -44 -70 0
15 44 -70 0
-15 44 70 0
15 -44 70 0
51 -44 -71 0
-51 44 -71 0
51 44 71 0
-51 -44 71 0
72 -71 0
72 -44 0
71 44 -72 0
-70 -72 -73 0
70 72 -73 0
-70 72 73 0
70 -72 73 0
-69 -73 -74 0
69 73 -74 0
-69 73 74 0
69 -73 74 0
60 74 -75 0
-60 -74 -75 0
60 -74 75 0
-60 74 75 0
76 7 0
76 11 0
-7 -11 -76 0
77 -14 0
77 -16 0
14 16 -77 0
78 -37 0
78 -77 0
37 77 -78 0
-78 -31 -79 0
78 31 -79 0
-78 31 79 0
78 -31 79 0
-44 80 -81 0
44 -80 -81 0
-44 -80 81 0
44 80 81 0
79 -81 -82 0
-79 81 -82 0
79 81 82 0
-79 -81 82 0
-83 -13 0
-83 82 0
13 -82 83 0
-84 76 0
-84 83 0
-76 -83 84 0
85 -8 0
85 9 0
8 -9 -85 0
-86 -14 0
-86 85 0
14 -85 86 0
-30 -87 0
30 -87 0
-86 -87 -88 0
86 87 -88 0
-86 87 88 0
86 -87 88 0
20 -16 -89 0
-20 16 -89 0
20 16 89 0
-20 -16 89 0
-88 -89 -90 0
88 89 -90 0
-88 89 90 0
88 -89 90 0
-91 9 0
-91 1 0
-9 -1 91 0
-91 -63 -92 0
91 63 -92 0
-91 63 92 0
91 -63 92 0
-93 5 0
-93 16 0
-5 -16 93 0
94 9 0
94 93 0
-9 -93 -94 0
-95 92 0
-95 -94 0
-92 94 95 0
-14 -22 -96 0
14 22 -96 0
-14 22 96 0
14 -22 96 0
97 -96 0
97 85 0
96 -85 -97 0
-98 -95 0
-98 -97 0
95 97 98 0
-90 -98 -99 0
90 98 -99 0
-90 98 99 0
90 -98 99 0
-100 -84 0
-100 -99 0
84 99 100 0
101 -32 0
101 20 0
32 -20 -101 0
102 -65 -103 0
-102 65 -103 0
102 65 103 0
-102 -65 103 0
-104 -103 0
-104 -31 0
103 31 104 0
101 104 -105 0
-101 -104 -105 0
101 -104 105 0
-101 104 105 0
100 105 -106 0
-100 -105 -106 0
100 -105 106 0
-100 105 106 0
-107 -5 0
-107 -80 0
5 80 107 0
107 -94 -108 0
-107 94 -108 0
107 94 108 0
-107 -94 108 0
6 -61 -109 0
-6 61 -109 0
6 61 109 0
-6 -61 109 0
-110 -64 0
-110 -109 0
64 109 110 0
111 108 0
111 -110 0
-108 110 -111 0
112 47 0
112 -36 0
-47 36 -112 0
-113 112 0
-113 -14 0
-112 14 113 0
-114 111 0
-114 -113 0
-111 113 114 0
115 8 0
115 -33 0
-8 33 -115 0
116 -115 0
116 -3 0
115 3 -116 0
-117 -31 0
-117 -25 0
31 25 117 0
117 93 -118 0
-117 -93 -118 0
117 -93 118 0
-117 93 118 0
-119 8 0
-119 14 0
-8 -14 119 0
120 -2 0
120 119 0
2 -119 -120 0
-118 120 -121 0
118 -120 -121 0
-118 -120 121 0
118 120 121 0
122 121 0
122 20 0
-121 -20 -122 0
-123 -102 0
-123 24 0
102 -24 123 0
-39 -123 -124 0
39 123 -124 0
-39 123 124 0
39 -123 124 0
-122 -124 -125 0
122 124 -125 0
-122 124 125 0
122 -124 125 0
126 -116 0
126 125 0
116 -125 -126 0
-127 -47 0
-127 33 0
47 -33 127 0
-19 127 -128 0
19 -127 -128 0
-19 -127 128 0
19 127 128 0
129 18 0
129 -128 0
-18 128 -129 0
-126 -129 -130 0
126 129 -130 0
-126 129 130 0
126 -129 130 0
114 130 -131 0
-114 -130 -131 0
114 -130 131 0
-114 130 131 0
24 -63 -132 0
-24 63 -132 0
24 63 132 0
-24 -63 132 0
17 102 -133 0
-17 -102 -133 0
17 -102 133 0
-17 102 133 0
21 134 -135 0
-21 -134 -135 0
21 -134 135 0
-21 134 135 0
136 133 0
136 135 0
-133 -135 -136 0
-132 136 -137 0
132 -136 -137 0
-132 -136 137 0
132 136 137 0
138 -38 0
138 -38 0
38 -138 0
-138 -91 -139 0
138 91 -139 0
-138 91 139 0
138 -91 139 0
139 47 -140 0
-139 -47 -140 0
139 -47 140 0
-139 47 140 0
141 -61 0
141 140 0
61 -140 -141 0
-14 16 -142 0
14 -16 -142 0
-14 -16 142 0
14 16 142 0
-93 78 -143 0
93 -78 -143 0
-93 -78 143 0
93 78 143 0
-144 41 0
-144 143 0
-41 -143 144 0
-145 142 0
-145 -144 0
-142 144 145 0
146 141 0
146 145 0
-141 -145 -146 0
-147 -51 0
-147 -92 0
51 92 147 0
148 -127 0
148 -33 0
127 33 -148 0
148 -123 -149 0
-148 123 -149 0
148 123 149 0
-148 -123 149 0
150 -147 0
150 -149 0
147 149 -150 0
-151 -146 0
-151 150 0
146 -150 151 0
-152 107 0
-152 -16 0
-107 16 152 0
-151 -152 -153 0
151 152 -153 0
-151 152 153 0
151 -152 153 0
137 -153 -154 0
-137 153 -154 0
137 153 154 0
-137 -153 154 0
-155 131 0
-155 154 0
-131 -154 155 0
-156 -22 0
-156 -128 0
22 128 156 0
-155 -156 -157 0
155 156 -157 0
-155 156 157 0
155 -156 157 0
47 -62 -158 0
-47 62 -158 0
47 62 158 0
-47 -62 158 0
-65 -35 -159 0
65 35 -159 0
-65 35 159 0
65 -35 159 0
-160 -158 0
-160 159 0
158 -159 160 0
-161 38 0
-161 160 0
-38 -160 161 0
162 8 0
162 -16 0
-8 16 -162 0
163 161 0
163 162 0
-161 -162 -163 0
164 -92 0
164 103 0
92 -103 -164 0
-165 -164 0
-165 33 0
164 -33 165 0
166 143 0
166 79 0
-143 -79 -166 0
-165 166 -167 0
165 -166 -167 0
-165 -166 167 0
165 166 167 0
168 -163 0
168 -167 0
163 167 -168 0
-33 77 -169 0
33 -77 -169 0
-33 -77 169 0
33 77 169 0
-170 -169 0
-170 -91 0
169 91 170 0
171 -138 0
171 170 0
138 -170 -171 0
-172 -171 0
-172 -140 0
171 140 172 0
-173 -37 0
-173 -120 0
37 120 173 0
174 -173 0
174 127 0
173 -127 -174 0
175 -172 0
175 -174 0
172 174 -175 0
-176 -2 0
-176 102 0
2 -102 176 0
-177 -176 0
-177 120 0
176 -120 177 0
148 -11 -178 0
-148 11 -178 0
148 11 178 0
-148 -11 178 0
179 178 0
179 -11 0
-178 11 -179 0
180 37 0
180 179 0
-37 -179 -180 0
-181 -79 0
-181 138 0
79 -138 181 0
-182 180 0
-182 -181 0
-180 181 182 0
183 -177 0
183 182 0
177 -182 -183 0
-184 175 0
-184 183 0
-175 -183 184 0
185 63 0
185 -48 0
-63 48 -185 0
-21 185 -186 0
21 -185 -186 0
-21 -185 186 0
21 185 186 0
187 144 0
187 186 0
-144 -186 -187 0
-187 66 -188 0
187 -66 -188 0
-187 -66 188 0
187 66 188 0
189 -184 0
189 -188 0
184 188 -189 0
-168 189 -190 0
168 -189 -190 0
-168 -189 190 0
168 189 190 0
191 -4 0
191 80 0
4 -80 -191 0
78 191 -192 0
-78 -191 -192 0
78 -191 192 0
-78 191 192 0
190 -192 -193 0
-190 192 -193 0
190 192 193 0
-190 -192 193 0
194 -127 0
194 87 0
127 -87 -194 0
-38 194 -195 0
38 -194 -195 0
-38 -194 195 0
38 194 195 0
196 -50 0
196 195 0
50 -195 -196 0
-197 1 0
-197 -179 0
-1 179 197 0
-198 -196 0
-198 197 0
196 -197 198 0
199 17 0
199 119 0
-17 -119 -199 0
185 -199 -200 0
-185 199 -200 0
185 199 200 0
-185 -199 200 0
-201 115 0
-201 -127 0
-115 127 201 0
202 200 0
202 201 0
-200 -201 -202 0
-203 -87 0
-203 134 0
87 -134 203 0
202 203 -204 0
-202 -203 -204 0
202 -203 204 0
-202 203 204 0
-205 198 0
-205 204 0
-198 -204 205 0
-193 -205 -206 0
193 205 -206 0
-193 205 206 0
193 -205 206 0
-207 157 0
-207 -206 0
-157 206 207 0
208 106 0
208 207 0
-106 -207 -208 0
209 -75 0
209 -208 0
75 208 -209 0
-35 47 -133 160 0
-195 -48 -162 -79 184 -10 -101 -89 -99 0
197 199 -150 83 -167 9 -133 186 55 0
175 148 157 -88 0
142 -203 40 0
110 -19 202 72 82 114 -194 -186 132 150 0
-38 46 -23 140 0
-44 -88 63 149 -197 137 0
-43 38 -163 -16 67 -77 20 -22 -176 0
4 37 90 98 0
-106 135 -7 -13 -170 0
30 27 137 128 0
116 44 -204 -103 208 138 169 70 0
-170 183 0
205 16 56 201 -27 -191 182 0
-142 89 -50 130 119 -148 110 -88 0
156 -16 157 125 115 80 36 -87 -7 0
-99 169 131 116 198 0
-20 -201 161 -167 -196 10 -14 -8 79 -44 0
-52 -94 -83 -60 90 138 105 180 0
27 9 -178 -185 -111 92 0
52 -123 102 72 -103 26 0
-150 -32 177 171 209 -198 2 0
-60 110 13 -161 0
73 -69 -196 167 170 -76 159 -102 8 0
1 -79 -48 -113 81 -166 39 158 0
79 -74 -198 140 10 -29 40 41 0
85 40 82 30 150 0
-61 -74 0
179 -188 201 -157 113 -44 32 67 203 -170 0
111 -95 165 173 -121 20 -124 0
201 -100 -155 -98 -133 138 0
-155 -137 156 -102 24 -76 0
-167 203 -12 -113 -35 -182 -142 16 -126 -2 0
-194 -28 -117 84 -110 -103 -186 54 -72 -34 0
107 -170 -163 135 88 161 60 -67 75 0
153 -143 61 -184 62 0
72 -112 172 -198 199 28 101 -191 24 -200 0
-164 -185 -174 -155 128 0
156 -197 -207 105 -26 0
161 -201 142 13 117 -170 28 0
-144 56 122 -133 -190 0
-206 191 97 0
-87 147 -154 -197 171 -196 -118 15 0
148 69 -204 -68 -154 -205 109 0
189 139 -103 -142 130 -198 -124 -178 0
-206 69 4 -172 175 -115 0
177 -64 207 0
-201 -188 78 100 0
-7 145 -149 -77 118 -21 0
-160 -162 64 0
-135 -100 136 189 157 51 6 118 -153 89 0
151 -21 186 -72 175 139 -26 0
8 165 -185 0
132 17 -69 -134 136 183 0
-185 51 134 -91 36 -161 89 -123 -207 0
5 119 -98 193 66 161 2 -168 -195 -50 0
-104 -136 -116 0
-93 -167 201 0
147 -54 67 195 0
-129 70 -17 -90 2 -168 -35 -53 180 0
80 -88 89 -104 0
161 -118 74 168 148 15 -149 -132 0
87 89 0
70 -135 47 -157 0
159 86 -202 148 -182 -206 -196 177 -100 0
131 129 -192 0
159 -107 -148 56 0
50 -105 0
43 180 2 172 0
-147 170 -114 155 32 5 -102 0
-196 -198 -23 162 -169 124 -209 164 0
-81 158 42 -18 -205 0
-161 202 -205 0
44 -178 -204 -170 124 -66 -4 -43 0
-60 -14 -139 84 0
-155 -126 195 66 109 197 -39 -152 0
90 -107 -15 -135 0
106 164 -69 -25 27 0
-197 -182 -123 -86 -10 55 -200 0
91 29 -25 0
160 21 191 139 -12 0
180 66 33 -25 19 142 -14 97 -99 119 0
-17 65 -125 116 74 0
157 104 -160 161 -93 122 150 -169 -81 0
-45 84 -151 113 -136 -153 158 -134 -55 0
-186 119 77 191 21 -71 0
-84 -108 197 44 9 12 202 28 -124 0
-53 145 132 186 8 -89 0
99 -200 -64 22 67 0
142 41 -168 -146 5 172 28 0
-123 122 -78 133 85 -192 -19 0
-75 -122 -186 0
85 84 -27 26 127 -21 75 129 -1 0
-88 -167 -142 -76 -129 -178 103 0
-58 45 0
194 -170 85 62 -13 0
46 -137 -197 143 -125 -177 -186 0
126 -143 -21 178 54 138 8 17 0
-194 182 0
-2 43 -190 -144 0
119 201 5 76 -123 -168 0
35 -75 -128 63 0
-18 183 -74 -67 -71 -84 0
180 -164 -32 0
-109 201 -135 -15 55 -194 -123 -97 206 0
5 -115 79 87 -51 -208 -192 -47 0
-8 130 -195 -118 114 93 0
20 181 138 -133 -162 0
6 85 -86 194 0
-30 -161 -189 -187 108 100 11 144 -6 0
29 179 189 0
-68 54 49 -187 42 0
-33 -20 175 0
-167 -114 -16 -104 65 131 -13 -132 0
14 106 0
-183 84 -105 110 -128 44 96 186 0
152 -115 -204 -195 112 -147 -78 -158 205 0
-148 120 -100 72 96 -160 -156 -39 0
182 115 -144 -114 -128 0
209 0
